proyfinal/src/viki/013/experimentInOfficeAgust.take6.output/e920f2f4-2274-49d9-91da-d588b4986822.als.out
Reading from standard input... Use '--help' for help.
============================[ Problem Statistics ]=============================
|                                                                             |
|  Number of variables:         87638                                         |
|  Number of clauses:          161767                                         |
|  Parse time:                   0.04 s                                       |
|                                                                             |
============================[ Search Statistics ]==============================
| Conflicts |          ORIGINAL         |          LEARNT          | Progress |
|           |    Vars  Clauses Literals |    Limit  Clauses Lit/Cl |          |
===============================================================================
|       100 |   62306   104938   262209 |    38477      100     12 | 28.905 % |
|       250 |   62306   104938   262209 |    42324      250     45 | 28.905 % |
|       475 |   62306   104938   262209 |    46557      475     56 | 28.905 % |
|       812 |   62306   104938   262209 |    51213      812     45 | 28.905 % |
|      1318 |   62305   104894   262119 |    56334     1315     54 | 28.906 % |
|      2077 |   62305   104894   262119 |    61968     2074     86 | 28.906 % |
|      3216 |   62305   104894   262119 |    68164     3213     93 | 28.906 % |
|      4924 |   62267   104742   261761 |    74981     4917     88 | 28.950 % |
|      7486 |   62249   104668   261590 |    82479     7478    109 | 28.970 % |
|     11330 |   62230   104592   261410 |    90727    11320    118 | 28.992 % |
|     17096 |   51397    72819   183610 |    99800    14309    124 | 41.353 % |
===============================================================================
restarts              : 63
conflicts             : 18029          (6492 /sec)
decisions             : 61831          (0.00 % random) (22264 /sec)
propagations          : 27539141       (9916232 /sec)
conflict literals     : 2105699        (45.17 % deleted)
Memory used           : 39.02 MB
CPU time              : 2.77718 s

UNSATISFIABLE
